<instance format="XCSP3" type="CSP">
  <variables>
    <var id="x0"> 1 15 17 </var>
    <var id="x1"> 3 9 15 </var>
    <var id="x2"> 3 7 11 14 15 17 </var>
    <var id="x3"> 7 14 15 17 </var>
    <var id="x4"> 1 3 14 </var>
    <var id="x5"> 1 7 11 14 15 </var>
    <var id="x6"> 1 7 9 14 </var>
    <var id="x7"> 1 7 14 17 </var>
    <var id="x8"> 1 6 15 17 </var>
    <var id="x9"> 1 4 17 </var>
    <var id="x10"> 0 4 5 8 15 </var>
    <var id="x11"> 0 5 8 17 </var>
    <var id="x12"> 0 4 15 17 </var>
    <var id="x13"> 0 4 6 17 </var>
    <var id="x14"> 4 15 </var>
    <var id="x15"> 1 4 15 </var>
    <var id="x16"> 4 6 </var>
    <var id="x17"> 4 7 11 </var>
    <var id="x18"> 4 5 9 </var>
    <var id="x19"> 5 9 14 </var>
    <var id="x20"> 4 6 9 </var>
    <var id="x21"> 4 7 11 14 </var>
    <var id="x22"> 7 14 </var>
    <var id="x23"> 12 15 </var>
    <var id="x24"> 0 15 </var>
    <var id="x25"> 0 7 13..15 </var>
    <var id="x26"> 0 12 </var>
    <var id="x27"> 11 12 </var>
    <var id="x28"> 0 14 </var>
    <var id="x29"> 7 13 14 </var>
    <var id="x30"> 1 3 7 13 </var>
    <var id="x31"> 3 4 </var>
    <var id="x32"> 3 4 13 </var>
    <var id="x33"> 4 7 13 14 16 </var>
    <var id="x34"> 2 16 </var>
    <var id="x35"> 3 4 7 13 14 </var>
    <var id="x36"> 1 7 13 14 </var>
    <var id="x37"> 1 2 7 14 </var>
    <var id="x38"> 1 7 12 15 </var>
    <var id="x39"> 1 7 8 </var>
    <var id="x40"> 0 7 8 12 </var>
    <var id="x41"> 0 2 12 </var>
    <var id="x42"> 7 10 12 15 </var>
    <var id="x43"> 1 2 7 12 </var>
    <var id="x44"> 0..2 </var>
    <var id="x45"> 1 7 10 15 </var>
    <var id="x46"> 3 8 9 13 17 </var>
    <var id="x47"> 3 5 9 17 </var>
    <var id="x48"> 3 5 8 9 17 </var>
    <var id="x49"> 13 17 </var>
    <var id="x50"> 2 3 9 12 17 </var>
    <var id="x51"> 2 8 9 12 17 </var>
    <var id="x52"> 3 12 13 </var>
    <var id="x53"> 2 5 12 13 </var>
    <var id="x54"> 1 7 17 </var>
    <var id="x55"> 1 4 8 17 </var>
    <var id="x56"> 1 4 7 13 17 </var>
    <var id="x57"> 0 8 9 17 </var>
    <var id="x58"> 7 13 17 </var>
    <var id="x59"> 0 1 4 </var>
    <var id="x60"> 1 7..9 13 </var>
    <var id="x61"> 0 1 7 17 </var>
    <var id="x62"> 3 7 13 17 </var>
    <var id="x63"> 0 7 13 17 </var>
    <var id="x64"> 0 3 5 6 17 </var>
    <var id="x65"> 3 5 7 13 17 </var>
    <var id="x66"> 5 7 13 </var>
    <var id="x67"> 0 3 5 6 </var>
    <var id="x68"> 5..7 13 </var>
    <var id="x69"> 0 7 10 17 </var>
    <var id="x70"> 7 14 17 </var>
    <var id="x71"> 0 4 13 </var>
    <var id="x72"> 0 14 16 17 </var>
    <var id="x73"> 0 2 4 17 </var>
    <var id="x74"> 2 16 17 </var>
    <var id="x75"> 4 7 13 14 </var>
    <var id="x76"> 0 2 4 14 </var>
    <var id="x77"> 4 7 13 14 </var>
    <var id="x78"> 3 7..9 17 </var>
    <var id="x79"> 7..9 12 17 </var>
    <var id="x80"> 3 8 9 17 </var>
    <var id="x81"> 4 7 17 </var>
    <var id="x82"> 6 8 9 12 17 </var>
    <var id="x83"> 3 4 7 12 </var>
    <var id="x84"> 3 4 6 </var>
    <var id="x85"> 4 7 </var>
    <var id="x86"> 6 12 14 15 </var>
    <var id="x87"> 8 13 </var>
    <var id="x88"> 6 8 12 15 </var>
    <var id="x89"> 13 16 </var>
    <var id="x90"> 5 8 13 15 </var>
    <var id="x91"> 5 13..15 </var>
    <var id="x92"> 6 12 </var>
    <var id="x93"> 5 12 13 </var>
    <var id="x94"> 11 14 15 17 </var>
    <var id="x95"> 4 8 15 17 </var>
    <var id="x96"> 4 15 17 </var>
    <var id="x97"> 8 14 17 </var>
    <var id="x98"> 11 13..15 17 </var>
    <var id="x99"> 4 13..15 17 </var>
    <var id="x100"> 2 8 11 17 </var>
    <var id="x101"> 8 13 14 </var>
    <var id="x102"> 1 6 7 12 17 </var>
    <var id="x103"> 7 12 17 </var>
    <var id="x104"> 3..5 </var>
    <var id="x105"> 3 5 7 17 </var>
    <var id="x106"> 3 4 6 12 17 </var>
    <var id="x107"> 1 5 7 12 </var>
    <var id="x108"> 1 5..7 </var>
    <var id="x109"> 1 7 12 17 </var>
    <var id="x110"> 1 3 9 13 17 </var>
    <var id="x111"> 0 9 12 13 17 </var>
    <var id="x112"> 1 11 13 17 </var>
    <var id="x113"> 0 3 9 17 </var>
    <var id="x114"> 9 11 12 17 </var>
    <var id="x115"> 3 12 13 </var>
    <var id="x116"> 1 11 13 </var>
    <var id="x117"> 0 1 12 17 </var>
    <var id="x118"> 1 6 14 15 </var>
    <var id="x119"> 9 13 14 </var>
    <var id="x120"> 1 4 6 15 </var>
    <var id="x121"> 1 4 13 </var>
    <var id="x122"> 4..6 9 15 </var>
    <var id="x123"> 5 13..15 </var>
    <var id="x124"> 6 9 </var>
    <var id="x125"> 1 4..6 14 </var>
    <var id="x126"> 0 7 9 12 14 17 </var>
    <var id="x127"> 7 17 </var>
    <var id="x128"> 0 9 17 </var>
    <var id="x129"> 7 10 12 14 </var>
    <var id="x130"> 7 12 </var>
    <var id="x131"> 7 10 14 </var>
    <var id="x132"> 0 7 10 12 14 17 </var>
    <var id="x133"> 14 17 </var>
    <var id="x134"> 1 2 11 16 17 </var>
    <var id="x135"> 3 15 17 </var>
    <var id="x136"> 3 15 </var>
    <var id="x137"> 3 11 14 15 17 </var>
    <var id="x138"> 14..17 </var>
    <var id="x139"> 1 2 11 </var>
    <var id="x140"> 1 14 </var>
  </variables>
  <constraints>
    <group>
      <allDifferent> %... </allDifferent>
      <args> x0 x1 x2 x3 x4 x5 x6 x7 </args>
      <args> x8 x9 x10 x11 x12 x13 x14 x15 </args>
      <args> x16 x17 x18 x19 x20 x21 x22 </args>
      <args> x23 x24 x25 x26 x27 x28 x29 </args>
      <args> x30 x31 x32 x33 x34 x35 x36 x37 </args>
      <args> x38 x39 x40 x41 x42 x43 x44 x45 </args>
      <args> x46 x47 x48 x49 x50 x51 x52 x53 </args>
      <args> x54 x55 x56 x57 x58 x59 x60 x61 </args>
      <args> x62 x63 x64 x65 x66 x67 x68 x69 </args>
      <args> x70 x71 x72 x73 x74 x75 x76 x77 </args>
      <args> x78 x79 x80 x81 x82 x83 x84 x85 </args>
      <args> x86 x87 x88 x89 x90 x91 x92 x93 </args>
      <args> x94 x95 x96 x97 x98 x99 x100 x101 </args>
      <args> x102 x103 x104 x105 x106 x107 x108 x109 </args>
      <args> x110 x111 x112 x113 x114 x115 x116 x117 </args>
      <args> x118 x119 x120 x121 x122 x123 x124 x125 </args>
      <args> x126 x127 x128 x129 x130 x131 x132 </args>
      <args> x133 x134 x135 x136 x137 x138 x139 x140 </args>
      <args> x8 x38 x54 x70 x86 x94 x102 x118 </args>
      <args> x30 x39 x46 x62 x78 x87 x110 </args>
      <args> x40 x63 x79 x103 x111 x119 x126 x133 </args>
      <args> x0 x16 x23 x55 x88 x95 x120 </args>
      <args> x9 x17 x56 x89 x112 x121 x127 x134 </args>
      <args> x24 x31 x47 x64 x96 x122 x128 x135 </args>
      <args> x1 x10 x18 x32 x71 x90 x104 x136 </args>
      <args> x11 x19 x48 x57 x72 x80 x97 x113 </args>
      <args> x2 x58 x65 x91 x98 x105 x123 x137 </args>
      <args> x3 x12 x25 x33 x49 x81 x99 x138 </args>
      <args> x13 x20 x26 x41 x50 x73 x92 x106 </args>
      <args> x27 x34 x51 x74 x82 x100 x114 x124 </args>
      <args> x14 x35 x42 x52 x75 x83 x115 x129 </args>
      <args> x43 x53 x66 x93 x107 x130 x139 </args>
      <args> x4 x28 x44 x59 x67 x76 x84 x125 </args>
      <args> x5 x15 x21 x45 x77 x85 x116 x131 </args>
      <args> x6 x29 x36 x60 x68 x101 x108 x140 </args>
      <args> x7 x22 x37 x61 x69 x109 x117 x132 </args>
    </group>
  </constraints>
</instance>

